\Problem name: 

Minimize
OBJROW: x20
Subject To
constr(0):  x0 - x20 <= -0
constr(1):  x1 - x20 <= -0
constr(2):  x2 - x20 <= -0
constr(3):  x3 - x20 <= -0
constr(4):  x4 - x20 <= -0
constr(5):  x5 - x20 <= -0
constr(6):  x6 - x20 <= -0
constr(7):  x7 - x20 <= -0
constr(8):  x8 - x20 <= -0
constr(9):  x9 - x20 <= -0
constr(10):  x10 - x20 <= -0
constr(11):  x11 - x20 <= -0
constr(12):  x12 - x20 <= -0
constr(13):  x13 - x20 <= -0
constr(14):  x14 - x20 <= -0
constr(15):  x15 - x20 <= -0
constr(16):  x16 - x20 <= -0
constr(17):  x17 - x20 <= -0
constr(18):  x18 - x20 <= -0
constr(19):  x19 - x20 <= -0
constr(20):  x1 - x3 + 20 x21 >= 1
constr(21):  x1 - x3 + 20 x21 <= 19
constr(22):  x2 - x5 + 20 x22 >= 1
constr(23):  x2 - x5 + 20 x22 <= 19
constr(24):  x1 - x6 + 20 x23 >= 1
constr(25):  x1 - x6 + 20 x23 <= 19
constr(26):  x3 - x7 + 20 x24 >= 1
constr(27):  x3 - x7 + 20 x24 <= 19
constr(28):  x4 - x7 + 20 x25 >= 1
constr(29):  x4 - x7 + 20 x25 <= 19
constr(30):  x0 - x8 + 20 x26 >= 1
constr(31):  x0 - x8 + 20 x26 <= 19
constr(32):  x3 - x8 + 20 x27 >= 1
constr(33):  x3 - x8 + 20 x27 <= 19
constr(34):  x5 - x8 + 20 x28 >= 1
constr(35):  x5 - x8 + 20 x28 <= 19
constr(36):  x7 - x8 + 20 x29 >= 1
constr(37):  x7 - x8 + 20 x29 <= 19
constr(38):  x0 - x9 + 20 x30 >= 1
constr(39):  x0 - x9 + 20 x30 <= 19
constr(40):  x1 - x9 + 20 x31 >= 1
constr(41):  x1 - x9 + 20 x31 <= 19
constr(42):  x2 - x9 + 20 x32 >= 1
constr(43):  x2 - x9 + 20 x32 <= 19
constr(44):  x4 - x9 + 20 x33 >= 1
constr(45):  x4 - x9 + 20 x33 <= 19
constr(46):  x8 - x9 + 20 x34 >= 1
constr(47):  x8 - x9 + 20 x34 <= 19
constr(48):  x0 - x10 + 20 x35 >= 1
constr(49):  x0 - x10 + 20 x35 <= 19
constr(50):  x1 - x10 + 20 x36 >= 1
constr(51):  x1 - x10 + 20 x36 <= 19
constr(52):  x9 - x10 + 20 x37 >= 1
constr(53):  x9 - x10 + 20 x37 <= 19
constr(54):  x5 - x11 + 20 x38 >= 1
constr(55):  x5 - x11 + 20 x38 <= 19
constr(56):  x6 - x11 + 20 x39 >= 1
constr(57):  x6 - x11 + 20 x39 <= 19
constr(58):  x7 - x11 + 20 x40 >= 1
constr(59):  x7 - x11 + 20 x40 <= 19
constr(60):  x9 - x11 + 20 x41 >= 1
constr(61):  x9 - x11 + 20 x41 <= 19
constr(62):  x0 - x12 + 20 x42 >= 1
constr(63):  x0 - x12 + 20 x42 <= 19
constr(64):  x2 - x12 + 20 x43 >= 1
constr(65):  x2 - x12 + 20 x43 <= 19
constr(66):  x4 - x12 + 20 x44 >= 1
constr(67):  x4 - x12 + 20 x44 <= 19
constr(68):  x5 - x12 + 20 x45 >= 1
constr(69):  x5 - x12 + 20 x45 <= 19
constr(70):  x9 - x12 + 20 x46 >= 1
constr(71):  x9 - x12 + 20 x46 <= 19
constr(72):  x2 - x13 + 20 x47 >= 1
constr(73):  x2 - x13 + 20 x47 <= 19
constr(74):  x7 - x13 + 20 x48 >= 1
constr(75):  x7 - x13 + 20 x48 <= 19
constr(76):  x8 - x13 + 20 x49 >= 1
constr(77):  x8 - x13 + 20 x49 <= 19
constr(78):  x12 - x13 + 20 x50 >= 1
constr(79):  x12 - x13 + 20 x50 <= 19
constr(80):  x1 - x14 + 20 x51 >= 1
constr(81):  x1 - x14 + 20 x51 <= 19
constr(82):  x7 - x14 + 20 x52 >= 1
constr(83):  x7 - x14 + 20 x52 <= 19
constr(84):  x11 - x14 + 20 x53 >= 1
constr(85):  x11 - x14 + 20 x53 <= 19
constr(86):  x12 - x14 + 20 x54 >= 1
constr(87):  x12 - x14 + 20 x54 <= 19
constr(88):  x13 - x14 + 20 x55 >= 1
constr(89):  x13 - x14 + 20 x55 <= 19
constr(90):  x1 - x15 + 20 x56 >= 1
constr(91):  x1 - x15 + 20 x56 <= 19
constr(92):  x4 - x15 + 20 x57 >= 1
constr(93):  x4 - x15 + 20 x57 <= 19
constr(94):  x5 - x15 + 20 x58 >= 1
constr(95):  x5 - x15 + 20 x58 <= 19
constr(96):  x7 - x15 + 20 x59 >= 1
constr(97):  x7 - x15 + 20 x59 <= 19
constr(98):  x9 - x15 + 20 x60 >= 1
constr(99):  x9 - x15 + 20 x60 <= 19
constr(100):  x12 - x15 + 20 x61 >= 1
constr(101):  x12 - x15 + 20 x61 <= 19
constr(102):  x13 - x15 + 20 x62 >= 1
constr(103):  x13 - x15 + 20 x62 <= 19
constr(104):  x7 - x16 + 20 x63 >= 1
constr(105):  x7 - x16 + 20 x63 <= 19
constr(106):  x9 - x16 + 20 x64 >= 1
constr(107):  x9 - x16 + 20 x64 <= 19
constr(108):  x11 - x16 + 20 x65 >= 1
constr(109):  x11 - x16 + 20 x65 <= 19
constr(110):  x12 - x16 + 20 x66 >= 1
constr(111):  x12 - x16 + 20 x66 <= 19
constr(112):  x0 - x17 + 20 x67 >= 1
constr(113):  x0 - x17 + 20 x67 <= 19
constr(114):  x1 - x17 + 20 x68 >= 1
constr(115):  x1 - x17 + 20 x68 <= 19
constr(116):  x7 - x17 + 20 x69 >= 1
constr(117):  x7 - x17 + 20 x69 <= 19
constr(118):  x11 - x17 + 20 x70 >= 1
constr(119):  x11 - x17 + 20 x70 <= 19
constr(120):  x0 - x18 + 20 x71 >= 1
constr(121):  x0 - x18 + 20 x71 <= 19
constr(122):  x2 - x18 + 20 x72 >= 1
constr(123):  x2 - x18 + 20 x72 <= 19
constr(124):  x3 - x18 + 20 x73 >= 1
constr(125):  x3 - x18 + 20 x73 <= 19
constr(126):  x6 - x18 + 20 x74 >= 1
constr(127):  x6 - x18 + 20 x74 <= 19
constr(128):  x11 - x18 + 20 x75 >= 1
constr(129):  x11 - x18 + 20 x75 <= 19
constr(130):  x12 - x18 + 20 x76 >= 1
constr(131):  x12 - x18 + 20 x76 <= 19
constr(132):  x13 - x18 + 20 x77 >= 1
constr(133):  x13 - x18 + 20 x77 <= 19
constr(134):  x14 - x18 + 20 x78 >= 1
constr(135):  x14 - x18 + 20 x78 <= 19
constr(136):  x15 - x18 + 20 x79 >= 1
constr(137):  x15 - x18 + 20 x79 <= 19
constr(138):  x17 - x18 + 20 x80 >= 1
constr(139):  x17 - x18 + 20 x80 <= 19
constr(140):  x6 - x19 + 20 x81 >= 1
constr(141):  x6 - x19 + 20 x81 <= 19
constr(142):  x7 - x19 + 20 x82 >= 1
constr(143):  x7 - x19 + 20 x82 <= 19
constr(144):  x11 - x19 + 20 x83 >= 1
constr(145):  x11 - x19 + 20 x83 <= 19
constr(146):  x14 - x19 + 20 x84 >= 1
constr(147):  x14 - x19 + 20 x84 <= 19
constr(148):  x15 - x19 + 20 x85 >= 1
constr(149):  x15 - x19 + 20 x85 <= 19
Bounds
 1 <= x0 <= 20
 1 <= x1 <= 20
 1 <= x2 <= 20
 1 <= x3 <= 20
 1 <= x4 <= 20
 1 <= x5 <= 20
 1 <= x6 <= 20
 1 <= x7 <= 20
 1 <= x8 <= 20
 1 <= x9 <= 20
 1 <= x10 <= 20
 1 <= x11 <= 20
 1 <= x12 <= 20
 1 <= x13 <= 20
 1 <= x14 <= 20
 1 <= x15 <= 20
 1 <= x16 <= 20
 1 <= x17 <= 20
 1 <= x18 <= 20
 1 <= x19 <= 20
 1 <= x20 <= 20
 0 <= x21 <= 1
 0 <= x22 <= 1
 0 <= x23 <= 1
 0 <= x24 <= 1
 0 <= x25 <= 1
 0 <= x26 <= 1
 0 <= x27 <= 1
 0 <= x28 <= 1
 0 <= x29 <= 1
 0 <= x30 <= 1
 0 <= x31 <= 1
 0 <= x32 <= 1
 0 <= x33 <= 1
 0 <= x34 <= 1
 0 <= x35 <= 1
 0 <= x36 <= 1
 0 <= x37 <= 1
 0 <= x38 <= 1
 0 <= x39 <= 1
 0 <= x40 <= 1
 0 <= x41 <= 1
 0 <= x42 <= 1
 0 <= x43 <= 1
 0 <= x44 <= 1
 0 <= x45 <= 1
 0 <= x46 <= 1
 0 <= x47 <= 1
 0 <= x48 <= 1
 0 <= x49 <= 1
 0 <= x50 <= 1
 0 <= x51 <= 1
 0 <= x52 <= 1
 0 <= x53 <= 1
 0 <= x54 <= 1
 0 <= x55 <= 1
 0 <= x56 <= 1
 0 <= x57 <= 1
 0 <= x58 <= 1
 0 <= x59 <= 1
 0 <= x60 <= 1
 0 <= x61 <= 1
 0 <= x62 <= 1
 0 <= x63 <= 1
 0 <= x64 <= 1
 0 <= x65 <= 1
 0 <= x66 <= 1
 0 <= x67 <= 1
 0 <= x68 <= 1
 0 <= x69 <= 1
 0 <= x70 <= 1
 0 <= x71 <= 1
 0 <= x72 <= 1
 0 <= x73 <= 1
 0 <= x74 <= 1
 0 <= x75 <= 1
 0 <= x76 <= 1
 0 <= x77 <= 1
 0 <= x78 <= 1
 0 <= x79 <= 1
 0 <= x80 <= 1
 0 <= x81 <= 1
 0 <= x82 <= 1
 0 <= x83 <= 1
 0 <= x84 <= 1
 0 <= x85 <= 1
Integers
x0 x1 x2 x3 x4 x5 x6 x7 x8 x9 
x10 x11 x12 x13 x14 x15 x16 x17 x18 x19 
x20 x21 x22 x23 x24 x25 x26 x27 x28 x29 
x30 x31 x32 x33 x34 x35 x36 x37 x38 x39 
x40 x41 x42 x43 x44 x45 x46 x47 x48 x49 
x50 x51 x52 x53 x54 x55 x56 x57 x58 x59 
x60 x61 x62 x63 x64 x65 x66 x67 x68 x69 
x70 x71 x72 x73 x74 x75 x76 x77 x78 x79 
x80 x81 x82 x83 x84 x85 
End
